c Random 2 Leveled Graph
c 5 Rows, 10 columns, capacities in range [0, 100]
p max 52 145
n 1 s
n 52 t
a 1 6 300
a 1 5 300
a 1 4 300
a 1 3 300
a 1 2 300
a 2 10 31
a 2 7 50
a 2 11 38
a 3 10 47
a 3 8 24
a 3 11 39
a 4 8 95
a 4 9 85
a 4 11 16
a 5 8 99
a 5 9 60
a 5 10 2
a 6 7 60
a 6 11 95
a 6 10 42
a 7 14 95
a 7 13 16
a 7 12 56
a 8 12 47
a 8 14 11
a 8 13 23
a 9 12 93
a 9 14 26
a 9 16 24
a 10 15 26
a 10 13 42
a 10 16 50
a 11 12 91
a 11 15 32
a 11 14 35
a 12 21 95
a 12 17 90
a 12 19 50
a 13 17 3
a 13 21 29
a 13 20 10
a 14 21 6
a 14 20 3
a 14 17 25
a 15 20 7
a 15 21 27
a 15 17 58
a 16 18 84
a 16 19 54
a 16 17 9
a 17 26 8
a 17 24 99
a 17 22 75
a 18 26 50
a 18 22 46
a 18 23 7
a 19 24 17
a 19 26 58
a 19 22 83
a 20 24 58
a 20 26 26
a 20 22 76
a 21 24 8
a 21 22 12
a 21 23 86
a 22 31 80
a 22 28 78
a 22 30 47
a 23 31 13
a 23 29 61
a 23 30 6
a 24 31 54
a 24 28 17
a 24 29 77
a 25 28 93
a 25 27 30
a 25 30 19
a 26 31 47
a 26 29 54
a 26 30 66
a 27 36 52
a 27 33 6
a 27 35 51
a 28 32 91
a 28 35 67
a 28 33 34
a 29 32 33
a 29 36 45
a 29 34 56
a 30 35 56
a 30 34 43
a 30 33 81
a 31 32 68
a 31 35 89
a 31 33 71
a 32 39 53
a 32 40 21
a 32 41 97
a 33 38 78
a 33 39 11
a 33 41 90
a 34 39 65
a 34 41 76
a 34 38 17
a 35 37 58
a 35 39 44
a 35 41 20
a 36 38 39
a 36 40 71
a 36 39 51
a 37 42 35
a 37 44 8
a 37 46 77
a 38 42 100
a 38 45 45
a 38 44 22
a 39 44 80
a 39 45 45
a 39 42 80
a 40 44 40
a 40 46 2
a 40 42 58
a 41 42 1
a 41 43 98
a 41 44 98
a 42 49 85
a 42 48 5
a 42 47 18
a 43 47 100
a 43 50 85
a 43 48 35
a 44 47 14
a 44 48 2
a 44 51 28
a 45 49 43
a 45 51 44
a 45 47 29
a 46 47 41
a 46 49 4
a 46 51 67
a 47 52 300
a 48 52 300
a 49 52 300
a 50 52 300
a 51 52 300
